NAME : X-n303-k21
COMMENT : "Generated by Uchoa, Pecin, Pessoa, Poggi, Subramanian, and Vidal (2013)"
TYPE : CVRP
DIMENSION : 303
EDGE_WEIGHT_TYPE : EUC_2D
EDGE_WEIGHT_FORMAT : 
CAPACITY : 794
DISTANCE : 1.79769e+308
SERVICE_TIME : 0
NODE_COORD_SECTION
1 500 500
2 205 638
3 893 161
4 191 775
5 444 871
6 225 445
7 368 543
8 120 270
9 612 902
10 45 323
11 707 182
12 125 720
13 442 388
14 79 759
15 904 76
16 379 849
17 213 595
18 164 686
19 404 947
20 331 615
21 842 156
22 272 297
23 957 227
24 274 481
25 287 544
26 152 403
27 873 146
28 267 415
29 188 727
30 594 742
31 198 429
32 810 797
33 383 602
34 459 786
35 50 183
36 395 836
37 600 866
38 192 744
39 12 705
40 869 99
41 233 811
42 235 638
43 423 904
44 220 619
45 236 713
46 960 141
47 128 321
48 160 230
49 200 650
50 104 544
51 375 638
52 540 726
53 635 790
54 512 597
55 643 517
56 327 750
57 198 412
58 375 558
59 123 259
60 365 859
61 545 700
62 242 431
63 140 412
64 316 413
65 145 764
66 892 246
67 331 828
68 231 342
69 676 810
70 211 378
71 197 538
72 808 113
73 129 655
74 84 714
75 416 784
76 151 243
77 275 442
78 46 355
79 182 746
80 158 717
81 198 648
82 137 763
83 206 872
84 30 301
85 979 214
86 384 855
87 212 794
88 35 779
89 108 640
90 186 930
91 623 977
92 231 796
93 402 932
94 166 237
95 341 803
96 559 851
97 883 143
98 524 909
99 387 463
100 395 327
101 382 787
102 341 784
103 180 530
104 81 261
105 379 700
106 721 333
107 312 756
108 424 573
109 596 878
110 273 514
111 281 417
112 125 528
113 464 893
114 140 413
115 256 250
116 206 384
117 204 563
118 202 159
119 347 420
120 283 520
121 214 494
122 854 142
123 502 839
124 599 889
125 485 898
126 339 73
127 396 959
128 192 533
129 234 702
130 811 101
131 840 272
132 266 346
133 867 211
134 185 436
135 61 374
136 843 188
137 156 795
138 387 889
139 724 952
140 622 16
141 235 894
142 327 991
143 867 172
144 329 496
145 930 115
146 728 950
147 371 317
148 416 575
149 408 744
150 98 434
151 468 990
152 239 775
153 231 748
154 251 398
155 311 725
156 913 135
157 928 399
158 444 596
159 337 519
160 294 981
161 625 824
162 153 530
163 124 342
164 615 881
165 534 826
166 454 888
167 639 789
168 48 353
169 200 704
170 50 483
171 269 610
172 477 953
173 54 300
174 346 588
175 617 832
176 867 63
177 304 240
178 129 675
179 293 547
180 110 597
181 868 126
182 190 760
183 894 162
184 209 696
185 400 495
186 283 657
187 536 991
188 649 872
189 198 370
190 824 202
191 275 889
192 904 169
193 511 600
194 224 441
195 674 949
196 627 952
197 7 213
198 155 218
199 593 802
200 817 211
201 212 351
202 843 191
203 616 902
204 230 561
205 459 554
206 585 595
207 204 614
208 698 970
209 425 539
210 430 850
211 498 758
212 437 622
213 107 483
214 119 764
215 265 615
216 547 481
217 324 762
218 723 745
219 163 928
220 308 513
221 339 599
222 314 814
223 316 598
224 183 159
225 325 348
226 163 480
227 595 727
228 303 866
229 350 700
230 920 82
231 105 238
232 111 18
233 437 482
234 88 300
235 464 929
236 544 846
237 201 233
238 353 729
239 302 404
240 708 855
241 739 843
242 198 250
243 55 143
244 257 410
245 26 411
246 832 234
247 207 344
248 212 757
249 277 453
250 274 472
251 272 828
252 875 101
253 434 975
254 510 975
255 709 932
256 647 943
257 349 428
258 317 866
259 391 393
260 612 815
261 217 666
262 229 740
263 630 918
264 125 704
265 545 898
266 184 757
267 492 930
268 985 201
269 448 998
270 117 784
271 359 490
272 292 715
273 365 531
274 503 795
275 21 220
276 225 872
277 387 551
278 895 120
279 476 868
280 281 586
281 609 944
282 868 164
283 148 748
284 168 463
285 364 550
286 844 163
287 465 614
288 214 637
289 189 582
290 94 186
291 863 190
292 676 800
293 175 686
294 393 400
295 172 614
296 320 504
297 35 206
298 182 671
299 356 599
300 88 215
301 608 775
302 481 721
303 449 751
PICKUP_AND_DELIVERY_SECTION
1 0 0 0 0 0 0
2 0 0 0 0 0 20
3 0 0 0 0 14 0
4 0 0 0 0 0 85
5 0 0 0 0 33 0
6 0 0 0 0 0 51
7 0 0 0 0 78 0
8 0 0 0 0 0 51
9 0 0 0 0 85 0
10 0 0 0 0 0 74
11 0 0 0 0 4 0
12 0 0 0 0 0 13
13 0 0 0 0 2 0
14 0 0 0 0 0 33
15 0 0 0 0 16 0
16 0 0 0 0 0 31
17 0 0 0 0 16 0
18 0 0 0 0 0 18
19 0 0 0 0 3 0
20 0 0 0 0 0 66
21 0 0 0 0 42 0
22 0 0 0 0 0 65
23 0 0 0 0 15 0
24 0 0 0 0 0 3
25 0 0 0 0 38 0
26 0 0 0 0 0 81
27 0 0 0 0 82 0
28 0 0 0 0 0 83
29 0 0 0 0 86 0
30 0 0 0 0 0 1
31 0 0 0 0 59 0
32 0 0 0 0 0 69
33 0 0 0 0 1 0
34 0 0 0 0 0 58
35 0 0 0 0 98 0
36 0 0 0 0 0 37
37 0 0 0 0 65 0
38 0 0 0 0 0 92
39 0 0 0 0 44 0
40 0 0 0 0 0 86
41 0 0 0 0 83 0
42 0 0 0 0 0 68
43 0 0 0 0 52 0
44 0 0 0 0 0 82
45 0 0 0 0 66 0
46 0 0 0 0 0 34
47 0 0 0 0 33 0
48 0 0 0 0 0 18
49 0 0 0 0 39 0
50 0 0 0 0 0 97
51 0 0 0 0 29 0
52 0 0 0 0 0 6
53 0 0 0 0 74 0
54 0 0 0 0 0 20
55 0 0 0 0 2 0
56 0 0 0 0 0 89
57 0 0 0 0 48 0
58 0 0 0 0 0 53
59 0 0 0 0 57 0
60 0 0 0 0 0 80
61 0 0 0 0 26 0
62 0 0 0 0 0 85
63 0 0 0 0 89 0
64 0 0 0 0 0 29
65 0 0 0 0 68 0
66 0 0 0 0 0 15
67 0 0 0 0 51 0
68 0 0 0 0 0 9
69 0 0 0 0 63 0
70 0 0 0 0 0 62
71 0 0 0 0 49 0
72 0 0 0 0 0 28
73 0 0 0 0 84 0
74 0 0 0 0 0 82
75 0 0 0 0 65 0
76 0 0 0 0 0 77
77 0 0 0 0 74 0
78 0 0 0 0 0 27
79 0 0 0 0 100 0
80 0 0 0 0 0 82
81 0 0 0 0 54 0
82 0 0 0 0 0 21
83 0 0 0 0 43 0
84 0 0 0 0 0 4
85 0 0 0 0 53 0
86 0 0 0 0 0 55
87 0 0 0 0 73 0
88 0 0 0 0 0 46
89 0 0 0 0 68 0
90 0 0 0 0 0 22
91 0 0 0 0 69 0
92 0 0 0 0 0 93
93 0 0 0 0 44 0
94 0 0 0 0 0 63
95 0 0 0 0 64 0
96 0 0 0 0 0 81
97 0 0 0 0 87 0
98 0 0 0 0 0 44
99 0 0 0 0 12 0
100 0 0 0 0 0 78
101 0 0 0 0 91 0
102 0 0 0 0 0 63
103 0 0 0 0 84 0
104 0 0 0 0 0 7
105 0 0 0 0 2 0
106 0 0 0 0 0 68
107 0 0 0 0 85 0
108 0 0 0 0 0 77
109 0 0 0 0 93 0
110 0 0 0 0 0 16
111 0 0 0 0 6 0
112 0 0 0 0 0 52
113 0 0 0 0 79 0
114 0 0 0 0 0 43
115 0 0 0 0 87 0
116 0 0 0 0 0 40
117 0 0 0 0 47 0
118 0 0 0 0 0 74
119 0 0 0 0 19 0
120 0 0 0 0 0 3
121 0 0 0 0 12 0
122 0 0 0 0 0 40
123 0 0 0 0 57 0
124 0 0 0 0 0 100
125 0 0 0 0 4 0
126 0 0 0 0 0 37
127 0 0 0 0 74 0
128 0 0 0 0 0 51
129 0 0 0 0 71 0
130 0 0 0 0 0 99
131 0 0 0 0 23 0
132 0 0 0 0 0 24
133 0 0 0 0 16 0
134 0 0 0 0 0 100
135 0 0 0 0 39 0
136 0 0 0 0 0 49
137 0 0 0 0 52 0
138 0 0 0 0 0 81
139 0 0 0 0 52 0
140 0 0 0 0 0 60
141 0 0 0 0 87 0
142 0 0 0 0 0 2
143 0 0 0 0 42 0
144 0 0 0 0 0 56
145 0 0 0 0 28 0
146 0 0 0 0 0 17
147 0 0 0 0 1 0
148 0 0 0 0 0 91
149 0 0 0 0 20 0
150 0 0 0 0 0 79
151 0 0 0 0 30 0
152 0 0 0 0 0 88
153 0 0 0 0 98 0
154 0 0 0 0 0 60
155 0 0 0 0 63 0
156 0 0 0 0 0 79
157 0 0 0 0 73 0
158 0 0 0 0 0 11
159 0 0 0 0 10 0
160 0 0 0 0 0 70
161 0 0 0 0 39 0
162 0 0 0 0 0 31
163 0 0 0 0 25 0
164 0 0 0 0 0 24
165 0 0 0 0 4 0
166 0 0 0 0 0 74
167 0 0 0 0 4 0
168 0 0 0 0 0 84
169 0 0 0 0 52 0
170 0 0 0 0 0 72
171 0 0 0 0 8 0
172 0 0 0 0 0 5
173 0 0 0 0 22 0
174 0 0 0 0 0 89
175 0 0 0 0 100 0
176 0 0 0 0 0 21
177 0 0 0 0 17 0
178 0 0 0 0 0 96
179 0 0 0 0 25 0
180 0 0 0 0 0 35
181 0 0 0 0 38 0
182 0 0 0 0 0 73
183 0 0 0 0 98 0
184 0 0 0 0 0 29
185 0 0 0 0 40 0
186 0 0 0 0 0 36
187 0 0 0 0 28 0
188 0 0 0 0 0 9
189 0 0 0 0 16 0
190 0 0 0 0 0 88
191 0 0 0 0 62 0
192 0 0 0 0 0 64
193 0 0 0 0 4 0
194 0 0 0 0 0 95
195 0 0 0 0 57 0
196 0 0 0 0 0 57
197 0 0 0 0 19 0
198 0 0 0 0 0 90
199 0 0 0 0 72 0
200 0 0 0 0 0 39
201 0 0 0 0 16 0
202 0 0 0 0 0 96
203 0 0 0 0 92 0
204 0 0 0 0 0 89
205 0 0 0 0 64 0
206 0 0 0 0 0 81
207 0 0 0 0 70 0
208 0 0 0 0 0 76
209 0 0 0 0 62 0
210 0 0 0 0 0 33
211 0 0 0 0 100 0
212 0 0 0 0 0 50
213 0 0 0 0 67 0
214 0 0 0 0 0 61
215 0 0 0 0 13 0
216 0 0 0 0 0 55
217 0 0 0 0 55 0
218 0 0 0 0 0 21
219 0 0 0 0 91 0
220 0 0 0 0 0 67
221 0 0 0 0 99 0
222 0 0 0 0 0 71
223 0 0 0 0 22 0
224 0 0 0 0 0 62
225 0 0 0 0 82 0
226 0 0 0 0 0 43
227 0 0 0 0 61 0
228 0 0 0 0 0 99
229 0 0 0 0 28 0
230 0 0 0 0 0 50
231 0 0 0 0 32 0
232 0 0 0 0 0 42
233 0 0 0 0 59 0
234 0 0 0 0 0 5
235 0 0 0 0 45 0
236 0 0 0 0 0 90
237 0 0 0 0 78 0
238 0 0 0 0 0 81
239 0 0 0 0 42 0
240 0 0 0 0 0 49
241 0 0 0 0 78 0
242 0 0 0 0 0 81
243 0 0 0 0 68 0
244 0 0 0 0 0 15
245 0 0 0 0 73 0
246 0 0 0 0 0 44
247 0 0 0 0 65 0
248 0 0 0 0 0 92
249 0 0 0 0 57 0
250 0 0 0 0 0 67
251 0 0 0 0 94 0
252 0 0 0 0 0 31
253 0 0 0 0 87 0
254 0 0 0 0 0 63
255 0 0 0 0 79 0
256 0 0 0 0 0 91
257 0 0 0 0 90 0
258 0 0 0 0 0 29
259 0 0 0 0 77 0
260 0 0 0 0 0 31
261 0 0 0 0 97 0
262 0 0 0 0 0 57
263 0 0 0 0 74 0
264 0 0 0 0 0 22
265 0 0 0 0 99 0
266 0 0 0 0 0 52
267 0 0 0 0 7 0
268 0 0 0 0 0 87
269 0 0 0 0 31 0
270 0 0 0 0 0 91
271 0 0 0 0 7 0
272 0 0 0 0 0 68
273 0 0 0 0 81 0
274 0 0 0 0 0 93
275 0 0 0 0 67 0
276 0 0 0 0 0 7
277 0 0 0 0 20 0
278 0 0 0 0 0 26
279 0 0 0 0 45 0
280 0 0 0 0 0 71
281 0 0 0 0 62 0
282 0 0 0 0 0 29
283 0 0 0 0 77 0
284 0 0 0 0 0 81
285 0 0 0 0 45 0
286 0 0 0 0 0 67
287 0 0 0 0 24 0
288 0 0 0 0 0 81
289 0 0 0 0 42 0
290 0 0 0 0 0 6
291 0 0 0 0 45 0
292 0 0 0 0 0 29
293 0 0 0 0 90 0
294 0 0 0 0 0 15
295 0 0 0 0 90 0
296 0 0 0 0 0 6
297 0 0 0 0 49 0
298 0 0 0 0 0 91
299 0 0 0 0 20 0
300 0 0 0 0 0 58
301 0 0 0 0 87 0
302 0 0 0 0 0 15
303 0 0 0 0 55 0
